(set-logic BV) (define-fun origCir ((n455 Bool) (n215 Bool) (n308 Bool) (n379 Bool) (n364 Bool)) Bool (and (and n455 (not (xor (and n308 n215) (not (and n379 n364))))) (xor (and (not (xor (and n308 n215) (not (and n379 n364)))) (and n379 n364)) (not (and n379 n364))))) (synth-fun skel ((n455 Bool) (n215 Bool) (n308 Bool) (n379 Bool) (n364 Bool)) Bool) (declare-var n455 Bool) (declare-var n215 Bool) (declare-var n308 Bool) (declare-var n379 Bool) (declare-var n364 Bool) (constraint (= (origCir n455 n215 n308 n379 n364) (skel n455 n215 n308 n379 n364))) (check-synth)
